(set-logic ALL)
(declare-fun var0 () String)
(assert (str.in_re var0 (re.++ (re.* (re.* (str.to_re "00"))) (re.++ (re.+ (re.union (str.to_re "11") (str.to_re "222"))) (re.++ (re.+ (re.union (str.to_re "3") (str.to_re "4"))) (re.++ (re.union (re.union (str.to_re "555") (str.to_re "6")) (re.union (str.to_re "7") (str.to_re "888"))) (re.++ (re.* (re.+ (str.to_re "99"))) (re.++ (re.+ (re.+ (str.to_re "aaa"))) (re.++ (re.union (re.* (str.to_re "bbb")) (re.* (str.to_re "cc"))) (re.++ (re.* (re.+ (str.to_re "dd"))) (re.++ (re.union (re.+ (str.to_re "e")) (re.+ (str.to_re "ff"))) (re.++ (re.union (re.union (str.to_re "g") (str.to_re "hhh")) (re.union (str.to_re "i") (str.to_re "jj"))) (re.++ (re.+ (re.union (str.to_re "k") (str.to_re "l"))) (re.++ (re.* (re.+ (str.to_re "mmm"))) (re.++ (re.* (re.+ (str.to_re "nnn"))) (re.++ (re.union (re.union (str.to_re "oo") (str.to_re "p")) (re.union (str.to_re "q") (str.to_re "r"))) (re.++ (re.* (re.+ (str.to_re "sss"))) (re.++ (re.+ (re.union (str.to_re "ttt") (str.to_re "uuu"))) (re.++ (re.+ (re.union (str.to_re "v") (str.to_re "ww"))) (re.++ (re.union (re.+ (str.to_re "xx")) (re.+ (str.to_re "yy"))) (re.++ (re.union (re.union (str.to_re "z") (str.to_re "AAA")) (re.union (str.to_re "BBB") (str.to_re "CCC"))) (re.++ (re.* (re.* (str.to_re "DD"))) (re.++ (re.* (re.+ (str.to_re "EEE"))) (re.++ (re.union (re.+ (str.to_re "FFF")) (re.+ (str.to_re "GG"))) (re.++ (re.union (re.+ (str.to_re "H")) (re.+ (str.to_re "II"))) (re.++ (re.+ (re.* (str.to_re "JJJ"))) (re.++ (re.+ (re.union (str.to_re "KK") (str.to_re "L"))) (re.++ (re.+ (re.+ (str.to_re "MM"))) (re.++ (re.* (re.union (str.to_re "NNN") (str.to_re "OO"))) (re.++ (re.* (re.union (str.to_re "P") (str.to_re "Q"))) (re.++ (re.union (re.* (str.to_re "R")) (re.* (str.to_re "S"))) (re.++ (re.+ (re.+ (str.to_re "T"))) (re.++ (re.union (re.* (str.to_re "UUU")) (re.* (str.to_re "VV"))) (re.++ (re.+ (re.union (str.to_re "W") (str.to_re "XXX"))) (re.++ (re.* (re.union (str.to_re "Y") (str.to_re "ZZ"))) (re.++ (re.+ (re.+ (str.to_re "!!"))) (re.++ (re.* (re.union (str.to_re """""") (str.to_re "##"))) (re.++ (re.union (re.+ (str.to_re "$")) (re.+ (str.to_re "%%"))) (re.++ (re.+ (re.* (str.to_re "&"))) (re.++ (re.union (re.* (str.to_re "'''")) (re.* (str.to_re "("))) (re.++ (re.union (re.+ (str.to_re "))")) (re.+ (str.to_re "*"))) (re.++ (re.+ (re.* (str.to_re "+"))) (re.++ (re.* (re.union (str.to_re ",,") (str.to_re "---"))) (re.++ (re.* (re.union (str.to_re "...") (str.to_re "//"))) (re.++ (re.union (re.+ (str.to_re "::")) (re.+ (str.to_re ";;;"))) (re.++ (re.+ (re.* (str.to_re "<<<"))) (re.++ (re.union (re.* (str.to_re "=")) (re.* (str.to_re ">"))) (re.++ (re.* (re.union (str.to_re "???") (str.to_re "@"))) (re.++ (re.* (re.union (str.to_re "[[") (str.to_re "\\\\\\"))) (re.++ (re.+ (re.union (str.to_re "]") (str.to_re "^"))) (re.++ (re.* (re.union (str.to_re "__") (str.to_re "```"))) (re.++ (re.+ (re.* (str.to_re "{"))) (re.++ (re.union (re.* (str.to_re "|")) (re.* (str.to_re "}}}"))) (re.++ (re.union (re.union (str.to_re "~~") (str.to_re "0")) (re.union (str.to_re "111") (str.to_re "222"))) (re.++ (re.* (re.union (str.to_re "333") (str.to_re "444"))) (re.++ (re.+ (re.union (str.to_re "55") (str.to_re "666"))) (re.++ (re.* (re.union (str.to_re "777") (str.to_re "88"))) (re.++ (re.* (re.+ (str.to_re "99"))) (re.++ (re.+ (re.+ (str.to_re "a"))) (re.++ (re.union (re.* (str.to_re "bbb")) (re.* (str.to_re "c"))) (re.++ (re.+ (re.+ (str.to_re "dd"))) (re.++ (re.+ (re.union (str.to_re "ee") (str.to_re "f"))) (re.++ (re.union (re.* (str.to_re "gg")) (re.* (str.to_re "hhh"))) (re.++ (re.* (re.* (str.to_re "iii"))) (re.++ (re.+ (re.+ (str.to_re "jjj"))) (re.++ (re.union (re.* (str.to_re "kk")) (re.* (str.to_re "l"))) (re.++ (re.+ (re.+ (str.to_re "mm"))) (re.+ (re.union (str.to_re "nn") (str.to_re "o"))))))))))))))))))))))))))))))))))))))))))))))))))))))))))))))))))))))
(assert (not (str.in_re var0 (re.++ (re.* (re.* (str.to_re "000"))) (re.++ (re.union (re.+ (str.to_re "111")) (re.+ (str.to_re "22"))) (re.++ (re.+ (re.union (str.to_re "3") (str.to_re "4"))) (re.++ (re.union (re.union (str.to_re "5") (str.to_re "6")) (re.union (str.to_re "77") (str.to_re "888"))) (re.++ (re.+ (re.union (str.to_re "9") (str.to_re "aa"))) (re.++ (re.union (re.* (str.to_re "bbb")) (re.* (str.to_re "c"))) (re.++ (re.union (re.* (str.to_re "dd")) (re.* (str.to_re "e"))) (re.++ (re.* (re.+ (str.to_re "fff"))) (re.++ (re.union (re.* (str.to_re "ggg")) (re.* (str.to_re "hh"))) (re.++ (re.+ (re.* (str.to_re "iii"))) (re.++ (re.union (re.+ (str.to_re "jj")) (re.+ (str.to_re "kk"))) (re.++ (re.union (re.* (str.to_re "l")) (re.* (str.to_re "mm"))) (re.++ (re.* (re.union (str.to_re "n") (str.to_re "ooo"))) (re.++ (re.+ (re.union (str.to_re "ppp") (str.to_re "q"))) (re.++ (re.union (re.+ (str.to_re "rr")) (re.+ (str.to_re "sss"))) (re.++ (re.+ (re.* (str.to_re "t"))) (re.++ (re.* (re.+ (str.to_re "uuu"))) (re.++ (re.union (re.* (str.to_re "vvv")) (re.* (str.to_re "www"))) (re.++ (re.* (re.+ (str.to_re "xxx"))) (re.++ (re.union (re.union (str.to_re "yyy") (str.to_re "zz")) (re.union (str.to_re "AA") (str.to_re "BBB"))) (re.++ (re.+ (re.* (str.to_re "CCC"))) (re.++ (re.union (re.+ (str.to_re "DDD")) (re.+ (str.to_re "E"))) (re.++ (re.union (re.union (str.to_re "F") (str.to_re "GGG")) (re.union (str.to_re "H") (str.to_re "I"))) (re.++ (re.+ (re.union (str.to_re "J") (str.to_re "KKK"))) (re.++ (re.+ (re.+ (str.to_re "LLL"))) (re.++ (re.* (re.+ (str.to_re "MMM"))) (re.++ (re.* (re.+ (str.to_re "NN"))) (re.++ (re.union (re.+ (str.to_re "OO")) (re.+ (str.to_re "P"))) (re.++ (re.* (re.* (str.to_re "QQ"))) (re.++ (re.* (re.* (str.to_re "RRR"))) (re.++ (re.+ (re.* (str.to_re "S"))) (re.++ (re.union (re.* (str.to_re "TTT")) (re.* (str.to_re "U"))) (re.++ (re.union (re.* (str.to_re "V")) (re.* (str.to_re "WWW"))) (re.++ (re.+ (re.* (str.to_re "XX"))) (re.++ (re.+ (re.+ (str.to_re "YY"))) (re.++ (re.* (re.* (str.to_re "ZZZ"))) (re.++ (re.* (re.union (str.to_re "!!!") (str.to_re """"""""))) (re.++ (re.* (re.+ (str.to_re "##"))) (re.++ (re.+ (re.union (str.to_re "$$$") (str.to_re "%%%"))) (re.++ (re.+ (re.+ (str.to_re "&&"))) (re.++ (re.* (re.union (str.to_re "'''") (str.to_re "(("))) (re.++ (re.+ (re.+ (str.to_re "))"))) (re.++ (re.+ (re.+ (str.to_re "**"))) (re.++ (re.+ (re.* (str.to_re "+"))) (re.++ (re.+ (re.union (str.to_re ",,") (str.to_re "--"))) (re.++ (re.+ (re.+ (str.to_re "."))) (re.++ (re.union (re.* (str.to_re "//")) (re.* (str.to_re ":::"))) (re.++ (re.* (re.* (str.to_re ";;"))) (re.++ (re.* (re.* (str.to_re "<<<"))) (re.++ (re.+ (re.+ (str.to_re "="))) (re.++ (re.* (re.union (str.to_re ">>") (str.to_re "???"))) (re.++ (re.union (re.* (str.to_re "@@@")) (re.* (str.to_re "[["))) (re.++ (re.* (re.* (str.to_re "\\\\"))) (re.++ (re.* (re.* (str.to_re "]"))) (re.++ (re.union (re.union (str.to_re "^") (str.to_re "_")) (re.union (str.to_re "``") (str.to_re "{{"))) (re.++ (re.* (re.union (str.to_re "|") (str.to_re "}}"))) (re.++ (re.* (re.union (str.to_re "~~") (str.to_re "000"))) (re.++ (re.+ (re.* (str.to_re "11"))) (re.++ (re.+ (re.+ (str.to_re "2"))) (re.++ (re.+ (re.* (str.to_re "33"))) (re.++ (re.+ (re.* (str.to_re "4"))) (re.++ (re.* (re.* (str.to_re "55"))) (re.++ (re.+ (re.+ (str.to_re "666"))) (re.++ (re.+ (re.union (str.to_re "777") (str.to_re "88"))) (re.++ (re.+ (re.union (str.to_re "99") (str.to_re "a"))) (re.union (re.+ (str.to_re "bb")) (re.+ (str.to_re "cc")))))))))))))))))))))))))))))))))))))))))))))))))))))))))))))))))))))))
(check-sat)